#Graph (80,508)

param n := 80;
param quadcostlevel := 0.01;
param linear_cost1 := 0.1;
param linear_cost2 := 0.1;

########Cost matrices and vectors##########

for {i in V}
    for{j in V}
        {let Q1[i,j] := 0; let Q2[i,j] := 0;
        if (i==j) then {let Q1[i,j]:=quadcostlevel*4; let Q2_fix[i,j]:= quadcostlevel;}
        else {if(j==i+1 or j==i-1) then {let Q1[i,j]:=-quadcostlevel; let Q2_fix[i,j]:=-quadcostlevel;}}
        }

for {i in V}
    {let q1[i] := linear_cost1; let q2_fix[i] := linear_cost2;}

#######Adjacency matrix########

for {i in V}
    for{j in V}
        let M[i,j] :=0;

let M[1,14] := 1;
let M[2,37] := 1;
let M[2,75] := 1;
let M[2,14] := 1;
let M[3,54] := 1;
let M[3,46] := 1;
let M[3,37] := 1;
let M[3,28] := 1;
let M[3,5] := 1;
let M[3,60] := 1;
let M[3,57] := 1;
let M[3,44] := 1;
let M[3,63] := 1;
let M[3,40] := 1;
let M[3,69] := 1;
let M[3,25] := 1;
let M[3,27] := 1;
let M[3,73] := 1;
let M[3,33] := 1;
let M[4,50] := 1;
let M[4,79] := 1;
let M[4,7] := 1;
let M[4,72] := 1;
let M[4,47] := 1;
let M[4,19] := 1;
let M[4,34] := 1;
let M[4,68] := 1;
let M[4,9] := 1;
let M[4,66] := 1;
let M[5,22] := 1;
let M[5,10] := 1;
let M[5,20] := 1;
let M[5,39] := 1;
let M[5,17] := 1;
let M[5,37] := 1;
let M[5,28] := 1;
let M[5,3] := 1;
let M[6,57] := 1;
let M[6,16] := 1;
let M[6,48] := 1;
let M[6,72] := 1;
let M[6,37] := 1;
let M[6,35] := 1;
let M[6,55] := 1;
let M[6,58] := 1;
let M[6,28] := 1;
let M[7,15] := 1;
let M[7,47] := 1;
let M[7,50] := 1;
let M[7,4] := 1;
let M[7,79] := 1;
let M[7,9] := 1;
let M[7,66] := 1;
let M[7,38] := 1;
let M[7,34] := 1;
let M[7,72] := 1;
let M[7,68] := 1;
let M[7,19] := 1;
let M[8,72] := 1;
let M[8,56] := 1;
let M[9,37] := 1;
let M[9,38] := 1;
let M[9,35] := 1;
let M[9,28] := 1;
let M[9,47] := 1;
let M[9,50] := 1;
let M[9,19] := 1;
let M[9,79] := 1;
let M[9,66] := 1;
let M[9,7] := 1;
let M[9,72] := 1;
let M[9,4] := 1;
let M[9,68] := 1;
let M[9,15] := 1;
let M[9,34] := 1;
let M[10,5] := 1;
let M[10,37] := 1;
let M[10,22] := 1;
let M[10,20] := 1;
let M[10,39] := 1;
let M[10,17] := 1;
let M[11,42] := 1;
let M[11,72] := 1;
let M[12,14] := 1;
let M[13,43] := 1;
let M[14,37] := 1;
let M[14,80] := 1;
let M[14,41] := 1;
let M[14,65] := 1;
let M[14,32] := 1;
let M[14,24] := 1;
let M[14,12] := 1;
let M[14,2] := 1;
let M[14,75] := 1;
let M[14,1] := 1;
let M[15,79] := 1;
let M[15,72] := 1;
let M[15,7] := 1;
let M[15,19] := 1;
let M[15,48] := 1;
let M[15,57] := 1;
let M[15,33] := 1;
let M[15,37] := 1;
let M[15,59] := 1;
let M[15,68] := 1;
let M[15,9] := 1;
let M[15,34] := 1;
let M[15,66] := 1;
let M[15,26] := 1;
let M[15,38] := 1;
let M[15,76] := 1;
let M[15,23] := 1;
let M[15,77] := 1;
let M[15,29] := 1;
let M[16,6] := 1;
let M[16,35] := 1;
let M[16,48] := 1;
let M[16,72] := 1;
let M[16,57] := 1;
let M[16,55] := 1;
let M[16,58] := 1;
let M[17,22] := 1;
let M[17,10] := 1;
let M[17,20] := 1;
let M[17,5] := 1;
let M[17,39] := 1;
let M[17,37] := 1;
let M[18,44] := 1;
let M[18,57] := 1;
let M[18,48] := 1;
let M[19,15] := 1;
let M[19,38] := 1;
let M[19,68] := 1;
let M[19,50] := 1;
let M[19,79] := 1;
let M[19,9] := 1;
let M[19,34] := 1;
let M[19,72] := 1;
let M[19,47] := 1;
let M[19,4] := 1;
let M[19,66] := 1;
let M[19,7] := 1;
let M[20,5] := 1;
let M[20,37] := 1;
let M[20,22] := 1;
let M[20,10] := 1;
let M[20,39] := 1;
let M[20,17] := 1;
let M[22,5] := 1;
let M[22,37] := 1;
let M[22,10] := 1;
let M[22,20] := 1;
let M[22,39] := 1;
let M[22,17] := 1;
let M[23,15] := 1;
let M[23,77] := 1;
let M[24,14] := 1;
let M[25,3] := 1;
let M[25,63] := 1;
let M[25,40] := 1;
let M[25,69] := 1;
let M[25,27] := 1;
let M[25,73] := 1;
let M[25,33] := 1;
let M[26,59] := 1;
let M[26,77] := 1;
let M[26,15] := 1;
let M[26,29] := 1;
let M[27,3] := 1;
let M[27,63] := 1;
let M[27,40] := 1;
let M[27,69] := 1;
let M[27,25] := 1;
let M[27,73] := 1;
let M[27,33] := 1;
let M[28,30] := 1;
let M[28,59] := 1;
let M[28,72] := 1;
let M[28,9] := 1;
let M[28,6] := 1;
let M[28,35] := 1;
let M[28,55] := 1;
let M[28,44] := 1;
let M[28,58] := 1;
let M[28,64] := 1;
let M[28,57] := 1;
let M[28,46] := 1;
let M[28,31] := 1;
let M[28,3] := 1;
let M[28,5] := 1;
let M[28,37] := 1;
let M[28,43] := 1;
let M[29,37] := 1;
let M[29,59] := 1;
let M[29,15] := 1;
let M[29,77] := 1;
let M[29,26] := 1;
let M[29,36] := 1;
let M[29,45] := 1;
let M[30,37] := 1;
let M[30,28] := 1;
let M[30,59] := 1;
let M[31,28] := 1;
let M[31,37] := 1;
let M[32,14] := 1;
let M[33,59] := 1;
let M[33,15] := 1;
let M[33,3] := 1;
let M[33,63] := 1;
let M[33,40] := 1;
let M[33,69] := 1;
let M[33,25] := 1;
let M[33,27] := 1;
let M[33,73] := 1;
let M[34,47] := 1;
let M[34,50] := 1;
let M[34,19] := 1;
let M[34,79] := 1;
let M[34,48] := 1;
let M[34,38] := 1;
let M[34,7] := 1;
let M[34,72] := 1;
let M[34,4] := 1;
let M[34,68] := 1;
let M[34,9] := 1;
let M[34,66] := 1;
let M[34,15] := 1;
let M[35,9] := 1;
let M[35,16] := 1;
let M[35,48] := 1;
let M[35,6] := 1;
let M[35,28] := 1;
let M[35,44] := 1;
let M[35,37] := 1;
let M[35,55] := 1;
let M[35,58] := 1;
let M[35,57] := 1;
let M[36,29] := 1;
let M[37,29] := 1;
let M[37,77] := 1;
let M[37,66] := 1;
let M[37,9] := 1;
let M[37,72] := 1;
let M[37,30] := 1;
let M[37,6] := 1;
let M[37,35] := 1;
let M[37,55] := 1;
let M[37,58] := 1;
let M[37,15] := 1;
let M[37,78] := 1;
let M[37,64] := 1;
let M[37,57] := 1;
let M[37,44] := 1;
let M[37,59] := 1;
let M[37,22] := 1;
let M[37,10] := 1;
let M[37,20] := 1;
let M[37,5] := 1;
let M[37,39] := 1;
let M[37,17] := 1;
let M[37,31] := 1;
let M[37,61] := 1;
let M[37,46] := 1;
let M[37,3] := 1;
let M[37,28] := 1;
let M[37,43] := 1;
let M[37,53] := 1;
let M[37,70] := 1;
let M[37,14] := 1;
let M[37,75] := 1;
let M[37,2] := 1;
let M[37,67] := 1;
let M[37,60] := 1;
let M[37,62] := 1;
let M[38,79] := 1;
let M[38,72] := 1;
let M[38,19] := 1;
let M[38,66] := 1;
let M[38,9] := 1;
let M[38,7] := 1;
let M[38,34] := 1;
let M[38,68] := 1;
let M[38,48] := 1;
let M[38,52] := 1;
let M[38,15] := 1;
let M[39,22] := 1;
let M[39,10] := 1;
let M[39,20] := 1;
let M[39,5] := 1;
let M[39,17] := 1;
let M[39,37] := 1;
let M[40,3] := 1;
let M[40,63] := 1;
let M[40,69] := 1;
let M[40,25] := 1;
let M[40,27] := 1;
let M[40,73] := 1;
let M[40,33] := 1;
let M[41,14] := 1;
let M[42,11] := 1;
let M[42,72] := 1;
let M[43,13] := 1;
let M[43,78] := 1;
let M[43,28] := 1;
let M[43,37] := 1;
let M[44,74] := 1;
let M[44,28] := 1;
let M[44,35] := 1;
let M[44,55] := 1;
let M[44,58] := 1;
let M[44,18] := 1;
let M[44,48] := 1;
let M[44,37] := 1;
let M[44,59] := 1;
let M[44,57] := 1;
let M[44,3] := 1;
let M[45,76] := 1;
let M[45,29] := 1;
let M[46,28] := 1;
let M[46,3] := 1;
let M[46,37] := 1;
let M[46,54] := 1;
let M[47,9] := 1;
let M[47,72] := 1;
let M[47,34] := 1;
let M[47,7] := 1;
let M[47,4] := 1;
let M[47,19] := 1;
let M[47,66] := 1;
let M[48,34] := 1;
let M[48,6] := 1;
let M[48,35] := 1;
let M[48,55] := 1;
let M[48,16] := 1;
let M[48,58] := 1;
let M[48,38] := 1;
let M[48,15] := 1;
let M[48,57] := 1;
let M[48,44] := 1;
let M[48,18] := 1;
let M[50,68] := 1;
let M[50,4] := 1;
let M[50,19] := 1;
let M[50,79] := 1;
let M[50,9] := 1;
let M[50,66] := 1;
let M[50,34] := 1;
let M[50,7] := 1;
let M[50,72] := 1;
let M[51,57] := 1;
let M[52,38] := 1;
let M[53,37] := 1;
let M[54,3] := 1;
let M[54,46] := 1;
let M[55,48] := 1;
let M[55,72] := 1;
let M[55,16] := 1;
let M[55,6] := 1;
let M[55,28] := 1;
let M[55,44] := 1;
let M[55,37] := 1;
let M[55,35] := 1;
let M[55,58] := 1;
let M[55,57] := 1;
let M[56,8] := 1;
let M[57,6] := 1;
let M[57,72] := 1;
let M[57,16] := 1;
let M[57,35] := 1;
let M[57,55] := 1;
let M[57,58] := 1;
let M[57,18] := 1;
let M[57,59] := 1;
let M[57,48] := 1;
let M[57,15] := 1;
let M[57,28] := 1;
let M[57,37] := 1;
let M[57,51] := 1;
let M[57,76] := 1;
let M[57,3] := 1;
let M[57,44] := 1;
let M[58,48] := 1;
let M[58,72] := 1;
let M[58,16] := 1;
let M[58,6] := 1;
let M[58,28] := 1;
let M[58,44] := 1;
let M[58,37] := 1;
let M[58,35] := 1;
let M[58,55] := 1;
let M[58,57] := 1;
let M[59,29] := 1;
let M[59,77] := 1;
let M[59,28] := 1;
let M[59,30] := 1;
let M[59,26] := 1;
let M[59,57] := 1;
let M[59,33] := 1;
let M[59,15] := 1;
let M[59,64] := 1;
let M[59,37] := 1;
let M[59,44] := 1;
let M[60,3] := 1;
let M[60,37] := 1;
let M[61,37] := 1;
let M[62,37] := 1;
let M[63,3] := 1;
let M[63,40] := 1;
let M[63,69] := 1;
let M[63,25] := 1;
let M[63,27] := 1;
let M[63,73] := 1;
let M[63,33] := 1;
let M[64,28] := 1;
let M[64,59] := 1;
let M[64,37] := 1;
let M[65,14] := 1;
let M[66,37] := 1;
let M[66,38] := 1;
let M[66,68] := 1;
let M[66,50] := 1;
let M[66,79] := 1;
let M[66,9] := 1;
let M[66,7] := 1;
let M[66,72] := 1;
let M[66,47] := 1;
let M[66,19] := 1;
let M[66,4] := 1;
let M[66,34] := 1;
let M[66,15] := 1;
let M[67,37] := 1;
let M[68,19] := 1;
let M[68,66] := 1;
let M[68,79] := 1;
let M[68,50] := 1;
let M[68,38] := 1;
let M[68,7] := 1;
let M[68,72] := 1;
let M[68,4] := 1;
let M[68,15] := 1;
let M[68,9] := 1;
let M[68,34] := 1;
let M[69,3] := 1;
let M[69,63] := 1;
let M[69,40] := 1;
let M[69,25] := 1;
let M[69,27] := 1;
let M[69,73] := 1;
let M[69,33] := 1;
let M[70,37] := 1;
let M[72,37] := 1;
let M[72,15] := 1;
let M[72,38] := 1;
let M[72,28] := 1;
let M[72,47] := 1;
let M[72,50] := 1;
let M[72,4] := 1;
let M[72,19] := 1;
let M[72,79] := 1;
let M[72,9] := 1;
let M[72,66] := 1;
let M[72,7] := 1;
let M[72,34] := 1;
let M[72,68] := 1;
let M[72,57] := 1;
let M[72,55] := 1;
let M[72,16] := 1;
let M[72,58] := 1;
let M[72,6] := 1;
let M[72,11] := 1;
let M[72,42] := 1;
let M[72,8] := 1;
let M[73,3] := 1;
let M[73,63] := 1;
let M[73,40] := 1;
let M[73,69] := 1;
let M[73,25] := 1;
let M[73,27] := 1;
let M[73,33] := 1;
let M[74,44] := 1;
let M[74,77] := 1;
let M[75,37] := 1;
let M[75,2] := 1;
let M[75,14] := 1;
let M[76,15] := 1;
let M[76,45] := 1;
let M[76,57] := 1;
let M[77,37] := 1;
let M[77,59] := 1;
let M[77,26] := 1;
let M[77,23] := 1;
let M[77,15] := 1;
let M[77,29] := 1;
let M[77,74] := 1;
let M[78,37] := 1;
let M[78,43] := 1;
let M[79,15] := 1;
let M[79,38] := 1;
let M[79,68] := 1;
let M[79,50] := 1;
let M[79,4] := 1;
let M[79,19] := 1;
let M[79,9] := 1;
let M[79,66] := 1;
let M[79,34] := 1;
let M[79,7] := 1;
let M[79,72] := 1;
let M[80,14] := 1;
